NAME : rnd28_20.tsp
TYPE : TSP
DIMENSION : 20
EDGE_WEIGHT_TYPE : EUC_2D
NODE_COORD_SECTION
1 15 798
2 102 5
3 951 884
4 291 126
5 643 735
6 842 269
7 100 637
8 516 412
9 481 398
10 544 739
11 406 912
12 573 794
13 88 318
14 491 621
15 826 805
16 531 557
17 52 489
18 33 812
19 296 61
20 515 720
